(set-info :smt-lib-version 2.6)
(set-logic QF_LIA)
(set-info :source |
Alberto Griggio

|)
(set-info :category "random")
(set-info :status unsat)
(declare-fun x0 () Int)
(declare-fun x1 () Int)
(declare-fun x2 () Int)
(declare-fun x3 () Int)
(declare-fun x4 () Int)
(declare-fun x5 () Int)
(declare-fun x6 () Int)
(declare-fun x7 () Int)
(declare-fun x8 () Int)
(declare-fun x9 () Int)
(assert (let ((?v_7 (* 1 x8)) (?v_0 (* 1 x3)) (?v_2 (* 0 x7)) (?v_1 (* 0 x9)) (?v_3 (* 0 x1)) (?v_4 (* 1 x9)) (?v_12 (* 0 x3)) (?v_9 (* 1 x7)) (?v_10 (* 0 x8)) (?v_11 (* 0 x5)) (?v_8 (* 0 x0)) (?v_19 (* 1 x6)) (?v_21 (* 1 x2)) (?v_17 (* 1 x5)) (?v_16 (* 1 x4)) (?v_13 (* 0 x6)) (?v_20 (* 0 x2)) (?v_27 (* 1 x0)) (?v_22 (* 0 x4)) (?v_24 (* 1 x1)) (?v_14 (* (- 1) x1)) (?v_6 (* (- 1) x7)) (?v_15 (* (- 1) x9)) (?v_18 (* (- 1) x4)) (?v_5 (* (- 1) x2)) (?v_25 (* (- 1) x6)) (?v_28 (* (- 1) x8)) (?v_23 (* (- 1) x0)) (?v_26 (* (- 1) x5)) (?v_29 (* (- 1) x3))) (and (<= (+ ?v_7 ?v_0 ?v_14 ?v_1 ?v_2 ?v_6 ?v_15 ?v_0 ?v_1 ?v_1) 0) (<= (+ ?v_2 ?v_18 ?v_3 ?v_4 ?v_5 ?v_3 ?v_13 ?v_4 ?v_2 ?v_12) 1) (<= (+ ?v_2 ?v_8 ?v_5 ?v_6 ?v_9 ?v_10 ?v_11 ?v_7 ?v_0 ?v_8) 1) (<= (+ ?v_3 ?v_9 ?v_19 ?v_6 ?v_3 ?v_21 ?v_1 ?v_9 ?v_3 ?v_25) (- 1)) (<= (+ ?v_1 ?v_17 ?v_5 ?v_9 ?v_10 ?v_11 ?v_4 ?v_12 ?v_3 ?v_12) 0) (<= (+ ?v_16 ?v_13 ?v_20 ?v_14 ?v_8 ?v_6 ?v_7 ?v_22 ?v_15 ?v_2) 0) (<= (+ ?v_16 ?v_27 ?v_16 ?v_10 ?v_12 ?v_6 ?v_17 ?v_18 ?v_4 ?v_1) 1) (<= (+ ?v_19 ?v_15 ?v_16 ?v_19 ?v_28 ?v_20 ?v_3 ?v_3 ?v_21 ?v_11) 1) (<= (+ ?v_17 ?v_1 ?v_1 ?v_22 ?v_12 ?v_20 ?v_1 ?v_0 ?v_15 ?v_23) (- 1)) (<= (+ ?v_22 ?v_23 ?v_10 ?v_24 ?v_22 ?v_3 ?v_1 ?v_16 ?v_1 ?v_20) 1) (<= (+ ?v_4 ?v_16 ?v_1 ?v_26 ?v_1 ?v_24 ?v_21 ?v_21 ?v_1 ?v_8) (- 1)) (<= (+ ?v_12 ?v_3 ?v_25 ?v_7 ?v_11 ?v_7 ?v_23 ?v_19 ?v_2 ?v_15) 0) (<= (+ ?v_17 ?v_17 ?v_18 ?v_17 ?v_14 ?v_16 ?v_7 ?v_23 ?v_3 ?v_13) (- 1)) (<= (+ ?v_17 ?v_11 ?v_2 ?v_13 ?v_0 ?v_13 ?v_2 ?v_11 ?v_6 ?v_26) 0) (<= (+ ?v_17 ?v_3 ?v_27 ?v_20 ?v_28 ?v_28 ?v_13 ?v_28 ?v_24 ?v_13) (- 1)) (<= (+ ?v_3 ?v_23 ?v_29 ?v_14 ?v_13 ?v_10 ?v_10 ?v_22 ?v_26 ?v_14) 0) (<= (+ ?v_4 ?v_12 ?v_0 ?v_22 ?v_11 ?v_27 ?v_7 ?v_9 ?v_22 ?v_25) 1) (<= (+ ?v_8 ?v_1 ?v_23 ?v_0 ?v_20 ?v_15 ?v_17 ?v_1 ?v_9 ?v_0) (- 1)) (<= (+ ?v_4 ?v_22 ?v_3 ?v_5 ?v_24 ?v_8 ?v_8 ?v_26 ?v_24 ?v_11) 0) (<= (+ ?v_17 ?v_7 ?v_29 ?v_24 ?v_8 ?v_27 ?v_17 ?v_11 ?v_14 ?v_13) 0) (<= (+ ?v_2 ?v_3 ?v_18 ?v_11 ?v_12 ?v_7 ?v_10 ?v_13 ?v_16 ?v_21) 0) (<= (+ ?v_10 ?v_18 ?v_27 ?v_1 ?v_0 ?v_26 ?v_7 ?v_4 ?v_12 ?v_1) 0) (<= (+ ?v_27 ?v_14 ?v_24 ?v_11 ?v_21 ?v_3 ?v_3 ?v_23 ?v_28 ?v_2) 0) (<= (+ ?v_12 ?v_3 ?v_6 ?v_22 ?v_19 ?v_8 ?v_10 ?v_1 ?v_20 ?v_8) 0) (<= (+ ?v_24 ?v_6 ?v_13 ?v_11 ?v_22 ?v_7 ?v_7 ?v_10 ?v_22 ?v_10) (- 1)) (<= (+ ?v_10 ?v_21 ?v_9 ?v_11 ?v_8 ?v_5 ?v_14 ?v_26 ?v_21 ?v_7) 0) (<= (+ ?v_21 ?v_0 ?v_28 ?v_11 ?v_11 ?v_15 ?v_20 ?v_5 ?v_4 ?v_21) 0) (<= (+ ?v_20 ?v_26 ?v_8 ?v_4 ?v_8 ?v_29 ?v_20 ?v_11 ?v_9 ?v_17) (- 1)) (<= (+ ?v_19 ?v_12 ?v_2 ?v_6 ?v_8 ?v_25 ?v_14 ?v_5 ?v_8 ?v_18) (- 1)) (<= (+ ?v_4 ?v_26 ?v_13 ?v_18 ?v_23 ?v_27 ?v_17 ?v_26 ?v_26 ?v_4) (- 1)) (<= (+ ?v_12 ?v_0 ?v_19 ?v_6 ?v_28 ?v_19 ?v_8 ?v_13 ?v_19 ?v_10) 0) (<= (+ ?v_21 ?v_24 ?v_17 ?v_10 ?v_6 ?v_0 ?v_13 ?v_3 ?v_3 ?v_17) 0) (<= (+ ?v_21 ?v_22 ?v_7 ?v_28 ?v_13 ?v_5 ?v_1 ?v_5 ?v_27 ?v_8) 1) (<= (+ ?v_19 ?v_20 ?v_11 ?v_11 ?v_22 ?v_13 ?v_26 ?v_1 ?v_13 ?v_1) (- 1)) (<= (+ ?v_4 ?v_14 ?v_22 ?v_21 ?v_16 ?v_2 ?v_27 ?v_9 ?v_14 ?v_3) (- 1)))))
(check-sat)
(exit)
